Si Ti  C Si  O Li Ti  C Si  O Li 
 1.0000000000000000
    12.1997957229999994    0.0000000000000000    0.0000000000000000
     6.0999110236999998   10.5653298227000008    0.0000000000000000
    -0.0316962429000000   -0.0185524014000000   33.5260047020999963
  Si  Ti   C  Si   O  Li  Ti   C  Si   O  Li
  50  32  16  50  32  32  32  16  50  32  32
Direct
  0.2667469980000000  0.0666799990000000  0.3316329916666667
  0.3333390060000000  0.1334239990000000  0.3310130040000001
  0.2667599920000001  0.2667829990000000  0.3312313356666667
  0.3334209920000000  0.3334389930000000  0.3304479916666667
  0.2668080030000000  0.4667629900000000  0.3298066656666667
  0.3335019949999999  0.5333619710000000  0.3297133246666666
  0.2668269870000000  0.6666300300000000  0.3293229936666667
  0.3334699870000000  0.7332710030000000  0.3300163350000000
  0.2667770090000001  0.8665869829999999  0.3305396636666666
  0.3333680030000001  0.9333480000000000  0.3308133283333333
  0.4667649870000000  0.0667300000000000  0.3300266663333334
  0.5333210229999999  0.1335040030000000  0.3293886583333334
  0.4667429920000000  0.2668299970000000  0.3298056723333334
  0.5333430169999999  0.3335199950000000  0.3297133246666666
  0.4667359890000001  0.4667559860000001  0.3295219936666667
  0.5333399769999999  0.5333610180000000  0.3298306663333333
  0.4667330089999999  0.6665980220000000  0.3296343286666666
  0.5333300229999999  0.7332879900000000  0.3295386633333334
  0.4667539890000000  0.8666129710000000  0.3299443323333334
  0.5333099960000000  0.9333879949999999  0.3293019930000000
  0.6667050120000000  0.0667719990000000  0.3285160063333333
  0.7332999709999999  0.1335269960000000  0.3287893336666667
  0.6666079759999999  0.2668499950000000  0.3293226760000000
  0.7332509760000001  0.3334879880000000  0.3300169906666667
  0.6665779949999998  0.4667530060000001  0.3296353420000000
  0.7332670090000000  0.5333499910000000  0.3295390010000000
  0.6666529769999999  0.6666749720000000  0.3288933236666667
  0.7333189850000000  0.7333390120000000  0.3281036616666667
  0.6667379740000001  0.8666930200000000  0.3283140063333334
  0.7333300109999998  0.9334329960000001  0.3276896676666667
  0.8666290040000000  0.0667570010000000  0.3290686606666667
  0.9333440069999999  0.1334650070000000  0.3302513360000001
  0.8665630219999999  0.2667999860000000  0.3305393260000000
  0.9333310130000000  0.3333849910000000  0.3308136663333334
  0.8665900229999999  0.4667750000000000  0.3299453260000000
  0.9333699939999999  0.5333290100000000  0.3293036620000000
  0.8666689989999999  0.6667600270000000  0.3283143243333334
  0.9334160089999999  0.7333480120000000  0.3276909986666667
  0.8666930200000001  0.8667179939999999  0.3278680046666667
  0.9334009889999999  0.9334179760000001  0.3283046683333334
  0.0666740020000000  0.0666999970000000  0.3310119906666667
  0.1333840040000000  0.1333960000000000  0.3314543366666667
  0.0666539970000000  0.2667720020000000  0.3316326736666667
  0.1334089930000000  0.3333559930000000  0.3310143350000000
  0.0667060019999999  0.4667870100000001  0.3300273420000000
  0.1334879990000000  0.5333399770000000  0.3293906650000000
  0.0667470020000000  0.6667280200000000  0.3285170000000000
  0.1335110070000000  0.7333179710000000  0.3287910023333333
  0.0667309980000000  0.8666549920000000  0.3290689983333333
  0.1334500010000000  0.9333590270000000  0.3302519916666667
  0.0416850000000000  0.0416710000000000  0.4618603290000000
  0.2084390070000000  0.2084310050000000  0.5312783320000000
  0.0416189990000000  0.2914749980000000  0.4620090026666667
  0.2084420030000000  0.4585660100000001  0.5310523310000000
  0.0417819989999999  0.5412920120000001  0.4616523286666667
  0.2084369959999999  0.7082260250000000  0.5309576590000000
  0.0418719979999999  0.7914819720000000  0.4614976643333334
  0.2084449979999999  0.9580680130000000  0.5311813353333333
  0.2914859949999999  0.0416099990000000  0.4620090026666667
  0.4585750100000001  0.2084320040000000  0.5310513376666667
  0.2915720050000000  0.2915619910000000  0.4618973333333334
  0.4584169979999999  0.4584079980000001  0.5310993393333333
  0.2918179929999999  0.5414459710000000  0.4616106650000000
  0.4584789869999999  0.7081189750000000  0.5310763320000000
  0.2917169930000000  0.7914810179999999  0.4617253343333333
  0.4586359859999999  0.9581469889999999  0.5310286680000000
  0.5413029790000000  0.0417709980000000  0.4616520006666667
  0.7082329989999999  0.2084300070000000  0.5309573413333333
  0.5414590240000000  0.2918069959999999  0.4616103370000000
  0.7081289889999998  0.4584699870000000  0.5310763320000000
  0.5415220259999999  0.5415080190000000  0.4615876673333333
  0.7083680030000000  0.7083600160000000  0.5307866733333334
  0.5413699749999999  0.7914760110000001  0.4616313376666667
  0.7084640260000000  0.9583029749999999  0.5306710003333334
  0.7914919850000000  0.0418610010000000  0.4614973366666667
  0.9580749869999999  0.2084349990000000  0.5311809976666667
  0.7914940120000001  0.2917039990000000  0.4617253343333333
  0.9581570029999995  0.4586279990000001  0.5310290060000000
  0.7914860249999999  0.5413579940000000  0.4616320033333334
  0.9583140020000001  0.7084540130000001  0.5306703250000000
  0.7914999719999999  0.7914890049999999  0.4614009956666667
  0.9582579729999999  0.9582489730000001  0.5308169920000001
  0.1249549980000000  0.1249450000000000  0.4966733356666667
  0.1250140070000000  0.3750010130000000  0.4965380033333334
  0.1251569990000000  0.6248940230000000  0.4962093333333334
  0.1251010000000000  0.8748329880000000  0.4963423313333333
  0.3750120100000000  0.1250029950000000  0.4965376656666667
  0.3750720020000000  0.3750619890000000  0.4964043300000000
  0.3750970069999999  0.6248340010000000  0.4963476656666667
  0.3750379979999999  0.8747730260000000  0.4964786670000000
  0.6249039769999999  0.1251470000000000  0.4962089956666667
  0.6248440150000000  0.3750869930000000  0.4963476656666667
  0.6248670219999999  0.6248570080000000  0.4962896703333333
  0.6249290109999999  0.8749150040000000  0.4961486656666667
  0.8748430009999999  0.1250910010000000  0.4963420033333334
  0.8747829789999999  0.3750280140000000  0.4964790046666667
  0.8749250169999999  0.6249200110000001  0.4961486656666667
  0.8749880189999998  0.8749780059999999  0.4960083366666667
  0.2667469980000001  0.0666799990000000  0.6649663250000001
  0.3333390060000000  0.1334239990000000  0.6643463373333334
  0.2667599920000001  0.2667829990000000  0.6645646690000000
  0.3334209920000001  0.3334389930000000  0.6637813250000000
  0.2668080029999999  0.4667629900000000  0.6631399990000001
  0.3335019949999999  0.5333619710000000  0.6630466580000000
  0.2668269870000000  0.6666300300000000  0.6626563270000001
  0.3334699870000000  0.7332710030000001  0.6633496683333333
  0.2667770090000001  0.8665869829999999  0.6638729970000000
  0.3333680030000001  0.9333480000000000  0.6641466616666667
  0.4667649870000000  0.0667300000000000  0.6633599996666668
  0.5333210229999999  0.1335040030000000  0.6627219916666667
  0.4667429920000000  0.2668299970000000  0.6631390056666667
  0.5333430169999999  0.3335199950000000  0.6630466580000000
  0.4667359890000001  0.4667559860000001  0.6628553270000000
  0.5333399769999998  0.5333610180000001  0.6631639996666666
  0.4667330089999999  0.6665980220000000  0.6629676620000001
  0.5333300229999999  0.7332879900000000  0.6628719966666667
  0.4667539890000000  0.8666129710000000  0.6632776656666667
  0.5333099960000000  0.9333879949999999  0.6626353263333333
  0.6667050119999998  0.0667719990000000  0.6618493396666667
  0.7332999709999999  0.1335269960000000  0.6621226670000000
  0.6666079759999999  0.2668499950000000  0.6626560093333334
  0.7332509760000001  0.3334879880000000  0.6633503239999999
  0.6665779949999998  0.4667530060000001  0.6629686753333334
  0.7332670090000000  0.5333499910000000  0.6628723343333334
  0.6666529769999999  0.6666749720000001  0.6622266570000001
  0.7333189850000000  0.7333390120000000  0.6614369950000001
  0.6667379740000001  0.8666930200000000  0.6616473396666667
  0.7333300109999998  0.9334329960000001  0.6610230010000001
  0.8666290040000000  0.0667570010000000  0.6624019940000001
  0.9333440069999999  0.1334650070000000  0.6635846693333334
  0.8665630219999999  0.2667999859999999  0.6638726593333333
  0.9333310130000000  0.3333849910000000  0.6641469996666667
  0.8665900229999997  0.4667750000000000  0.6632786593333334
  0.9333699939999999  0.5333290100000000  0.6626369953333333
  0.8666689989999997  0.6667600270000000  0.6616476576666667
  0.9334160089999999  0.7333480120000000  0.6610243320000001
  0.8666930200000001  0.8667179939999999  0.6612013380000000
  0.9334009889999999  0.9334179760000001  0.6616380016666668
  0.0666740020000000  0.0666999970000000  0.6643453240000000
  0.1333840040000000  0.1333960000000000  0.6647876700000001
  0.0666539970000000  0.2667720020000000  0.6649660070000000
  0.1334089930000000  0.3333559930000000  0.6643476683333334
  0.0667060020000000  0.4667870100000001  0.6633606753333334
  0.1334879990000000  0.5333399770000000  0.6627239983333334
  0.0667470019999998  0.6667280200000001  0.6618503333333333
  0.1335110070000000  0.7333179710000001  0.6621243356666666
  0.0667309980000000  0.8666549920000000  0.6624023316666666
  0.1334500010000000  0.9333590270000000  0.6635853250000000
  0.0415170010000000  0.0415120010000000  0.5696523386666668
  0.2081180070000000  0.2081049980000000  0.4237426620000000
  0.0415179990000000  0.2920309900000000  0.5698620080000000
  0.2083390060000000  0.4578349890000001  0.4232630033333334
  0.0415170010000000  0.5422289970000002  0.5693523286666667
  0.2084359970000000  0.7081390020000000  0.4230426650000000
  0.0415179989999998  0.7917310000000002  0.5691356660000000
  0.2082179929999999  0.9584109779999999  0.4235459963333333
  0.2920379940000000  0.0415109990000000  0.5698616703333335
  0.4578480120000000  0.2083249990000000  0.4232623380000000
  0.2919209899999999  0.2919139860000000  0.5697810053333334
  0.4581769999999999  0.4581629930000001  0.4230859976666667
  0.2916859979999999  0.5418819790000001  0.5695356726666667
  0.4580500129999999  0.7082329990000001  0.4231549996666667
  0.2917839880000000  0.7915040250000001  0.5696436763333333
  0.4577090139999999  0.9584100250000001  0.4233313303333334
  0.5422359700000000  0.0415100010000000  0.5693519910000000
  0.7081519960000000  0.2084230039999999  0.4230426650000000
  0.5418890119999999  0.2916789949999999  0.5695356726666667
  0.7082459930000000  0.4580360050000001  0.4231549996666667
  0.5417600269999997  0.5417540070000001  0.5696093240000001
  0.7080090050000001  0.7079960110000000  0.4229030013333334
  0.5420939919999997  0.7915999890000001  0.5694263380000001
  0.7078980209999999  0.9584050179999999  0.4228176673333333
  0.7917370199999999  0.0415120010000000  0.5691353280000000
  0.9584239719999998  0.2082040010000000  0.4235459963333333
  0.7915099860000000  0.2917770149999999  0.5696439943333333
  0.9584239719999998  0.4576950070000000  0.4233316680000000
  0.7916060090000000  0.5420870180000000  0.5694263380000001
  0.9584190250000000  0.7078850270000000  0.4228179950000000
  0.7918339970000001  0.7918279769999998  0.5689393283333334
  0.9584270120000001  0.9584140180000000  0.4230256676666667
  0.6250749829999999  0.3746519979999999  0.3959923336666667
  0.6247699859999999  0.6247550250000000  0.3961570013333334
  0.6242960100000000  0.1250700060000000  0.3964136690000000
  0.8755239839999999  0.3742029960000000  0.3968936653333334
  0.8751900200000000  0.6239510180000001  0.3965626656666666
  0.8749849799999999  0.8749709730000000  0.3964946666666667
  0.8754259939999999  0.1250939970000000  0.3967313320000000
  0.1249869990000000  0.1249710020000000  0.3975726663333334
  0.3744699950000000  0.3744550050000000  0.3964153330000000
  0.3740119930000000  0.1250299960000000  0.3972266663333334
  0.3746669890000000  0.6250600220000000  0.3959920010000000
  0.1250849959999999  0.6242809890000000  0.3964146673333334
  0.3742170040000000  0.8755109910000001  0.3968923340000000
  0.6239659789999996  0.8751749990000002  0.3965616673333333
  0.1251090020000000  0.8754119870000000  0.3967309990000000
  0.1250450020000000  0.3739970029999999  0.3972276646666667
  0.6252700090000000  0.3748399909999999  0.5966620046666666
  0.6254690289999998  0.6254649760000001  0.5962550043333333
  0.6257489920000000  0.1243930010000000  0.5957716703333333
  0.8748480080000001  0.3756380080000000  0.5962553420000001
  0.8749039769999997  0.6259469989999999  0.5954403280000000
  0.8749729989999999  0.8749690060000000  0.5950986743333333
  0.8748480079999998  0.1245040000000000  0.5959330003333333
  0.1249509980000000  0.1249450000000000  0.5961733263333333
  0.3751550020000000  0.3751479980000000  0.5964976746666667
  0.3759849970000000  0.1247240010000000  0.5961019993333333
  0.3748460110000000  0.6252650020000000  0.5966623426666667
  0.1243989989999999  0.6257439849999999  0.5957706570000001
  0.3756429850000000  0.8748430010000000  0.5962559976666667
  0.6259509920000002  0.8749009969999999  0.5954406660000000
  0.1245099980000001  0.8748440149999999  0.5959330003333333
  0.1247299980000001  0.3759790059999999  0.5961016616666667
  0.0416850000000000  0.0416710000000000  0.7951936623333334
  0.2084390070000000  0.2084310050000001  0.8646116653333334
  0.0416189990000000  0.2914749980000000  0.7953423360000000
  0.2084420030000001  0.4585660100000000  0.8643856643333334
  0.0417819990000000  0.5412920120000000  0.7949856620000001
  0.2084369960000001  0.7082260249999999  0.8642909923333334
  0.0418719980000000  0.7914819720000000  0.7948309976666666
  0.2084449979999999  0.9580680130000002  0.8645146686666667
  0.2914859949999999  0.0416099990000000  0.7953423360000000
  0.4585750100000001  0.2084320040000000  0.8643846710000000
  0.2915720050000000  0.2915619910000000  0.7952306666666666
  0.4584169979999999  0.4584079980000000  0.8644326726666667
  0.2918179930000000  0.5414459710000000  0.7949439983333334
  0.4584789869999999  0.7081189750000000  0.8644096653333333
  0.2917169930000000  0.7914810179999999  0.7950586676666667
  0.4586359859999999  0.9581469890000001  0.8643620013333334
  0.5413029790000000  0.0417709980000000  0.7949853340000000
  0.7082329989999999  0.2084300070000001  0.8642906746666668
  0.5414590240000000  0.2918069960000000  0.7949436703333335
  0.7081289889999999  0.4584699869999999  0.8644096653333333
  0.5415220259999998  0.5415080190000000  0.7949210006666667
  0.7083680030000000  0.7083600160000000  0.8641200066666667
  0.5413699749999999  0.7914760110000001  0.7949646710000000
  0.7084640259999998  0.9583029749999999  0.8640043336666667
  0.7914919850000000  0.0418610010000000  0.7948306700000001
  0.9580749869999999  0.2084349990000000  0.8645143310000000
  0.7914940120000001  0.2917039990000000  0.7950586676666667
  0.9581570029999997  0.4586279990000000  0.8643623393333334
  0.7914860249999999  0.5413579939999998  0.7949653366666667
  0.9583140020000001  0.7084540130000000  0.8640036583333334
  0.7914999719999999  0.7914890049999999  0.7947343290000001
  0.9582579729999998  0.9582489730000002  0.8641503253333334
  0.1249549980000000  0.1249450000000000  0.8300066690000001
  0.1250140070000000  0.3750010130000000  0.8298713366666667
  0.1251569990000000  0.6248940230000000  0.8295426666666667
  0.1251010000000000  0.8748329880000000  0.8296756646666666
  0.3750120100000000  0.1250029950000000  0.8298709990000001
  0.3750720020000001  0.3750619890000000  0.8297376633333333
  0.3750970069999999  0.6248340010000000  0.8296809990000000
  0.3750379979999999  0.8747730260000000  0.8298120003333335
  0.6249039769999999  0.1251470000000000  0.8295423290000000
  0.6248440150000000  0.3750869930000000  0.8296809990000000
  0.6248670219999999  0.6248570079999999  0.8296230036666667
  0.6249290109999999  0.8749150040000000  0.8294819990000001
  0.8748430009999999  0.1250910010000000  0.8296753366666667
  0.8747829789999998  0.3750280140000000  0.8298123380000000
  0.8749250170000000  0.6249200109999999  0.8294819990000001
  0.8749880189999998  0.8749780059999999  0.8293416700000000
  0.2667469980000000  0.0666799990000000  0.9982996583333332
  0.3333390060000000  0.1334239990000000  0.9976796706666667
  0.2667599920000001  0.2667829990000000  0.9978980023333334
  0.3334209920000001  0.3334389930000000  0.9971146583333333
  0.2668080030000000  0.4667629899999999  0.9964733323333335
  0.3335019950000001  0.5333619710000000  0.9963799913333333
  0.2668269870000000  0.6666300300000000  0.9959896603333332
  0.3334699870000000  0.7332710030000000  0.9966830016666668
  0.2667770090000001  0.8665869829999999  0.9972063303333334
  0.3333680030000001  0.9333480000000000  0.9974799950000000
  0.4667649870000000  0.0667300000000000  0.9966933330000000
  0.5333210229999999  0.1335040030000000  0.9960553250000002
  0.4667429920000000  0.2668299970000000  0.9964723390000000
  0.5333430169999998  0.3335199950000000  0.9963799913333333
  0.4667359890000001  0.4667559860000000  0.9961886603333334
  0.5333399769999998  0.5333610180000000  0.9964973330000000
  0.4667330089999998  0.6665980220000000  0.9963009953333335
  0.5333300229999998  0.7332879900000000  0.9962053299999999
  0.4667539890000000  0.8666129710000000  0.9966109990000001
  0.5333099959999998  0.9333879950000001  0.9959686596666667
  0.6667050119999998  0.0667719990000000  0.9951826730000002
  0.7332999709999999  0.1335269960000000  0.9954560003333335
  0.6666079759999999  0.2668499950000000  0.9959893426666668
  0.7332509759999999  0.3334879880000000  0.9966836573333334
  0.6665779949999998  0.4667530060000001  0.9963020086666666
  0.7332670089999997  0.5333499909999999  0.9962056676666666
  0.6666529769999998  0.6666749720000000  0.9955599903333333
  0.7333189850000000  0.7333390119999998  0.9947703283333335
  0.6667379740000001  0.8666930200000000  0.9949806729999999
  0.7333300109999998  0.9334329960000001  0.9943563343333335
  0.8666290040000000  0.0667570010000000  0.9957353273333335
  0.9333440069999998  0.1334650070000000  0.9969180026666667
  0.8665630219999999  0.2667999860000000  0.9972059926666667
  0.9333310130000000  0.3333849910000001  0.9974803330000001
  0.8665900229999997  0.4667749999999999  0.9966119926666668
  0.9333699939999999  0.5333290100000000  0.9959703286666667
  0.8666689989999997  0.6667600270000000  0.9949809910000001
  0.9334160090000000  0.7333480119999999  0.9943576653333335
  0.8666930200000001  0.8667179939999999  0.9945346713333334
  0.9334009889999999  0.9334179760000002  0.9949713350000001
  0.0666740020000000  0.0666999970000000  0.9976786573333335
  0.1333840040000000  0.1333960000000000  0.9981210033333334
  0.0666539970000000  0.2667720020000000  0.9982993403333333
  0.1334089930000000  0.3333559930000000  0.9976810016666666
  0.0667060020000000  0.4667870099999999  0.9966940086666666
  0.1334879990000001  0.5333399770000000  0.9960573316666668
  0.0667470020000000  0.6667280200000000  0.9951836666666667
  0.1335110070000000  0.7333179710000000  0.9954576690000000
  0.0667309980000000  0.8666549920000000  0.9957356650000000
  0.1334500010000001  0.9333590270000000  0.9969186583333334
  0.0415170010000000  0.0415120010000000  0.9029856720000000
  0.2081180070000000  0.2081049980000000  0.7570759953333334
  0.0415179990000000  0.2920309900000000  0.9031953413333335
  0.2083390060000000  0.4578349890000001  0.7565963366666667
  0.0415170010000000  0.5422289970000000  0.9026856620000000
  0.2084359970000000  0.7081390019999999  0.7563759983333334
  0.0415179989999998  0.7917310000000002  0.9024689993333334
  0.2082179929999999  0.9584109779999999  0.7568793296666667
  0.2920379940000000  0.0415109990000000  0.9031950036666667
  0.4578480120000000  0.2083249990000000  0.7565956713333334
  0.2919209900000000  0.2919139860000000  0.9031143386666667
  0.4581769999999999  0.4581629930000000  0.7564193310000000
  0.2916859980000000  0.5418819790000000  0.9028690060000001
  0.4580500129999999  0.7082329990000000  0.7564883330000000
  0.2917839880000000  0.7915040250000001  0.9029770096666667
  0.4577090139999999  0.9584100250000002  0.7566646636666667
  0.5422359700000000  0.0415100010000000  0.9026853243333334
  0.7081519960000000  0.2084230040000000  0.7563759983333334
  0.5418890119999999  0.2916789950000000  0.9028690060000001
  0.7082459930000000  0.4580360050000000  0.7564883330000000
  0.5417600269999998  0.5417540070000000  0.9029426573333335
  0.7080090050000001  0.7079960110000000  0.7562363346666667
  0.5420939919999997  0.7915999890000001  0.9027596713333333
  0.7078980209999999  0.9584050179999999  0.7561510006666667
  0.7917370199999999  0.0415120010000000  0.9024686613333334
  0.9584239719999998  0.2082040010000000  0.7568793296666667
  0.7915099860000000  0.2917770150000000  0.9029773276666667
  0.9584239719999998  0.4576950069999999  0.7566650013333334
  0.7916060090000000  0.5420870180000000  0.9027596713333333
  0.9584190249999998  0.7078850269999999  0.7561513283333333
  0.7918339970000001  0.7918279769999998  0.9022726616666666
  0.9584270119999999  0.9584140180000003  0.7563590010000001
  0.6250749829999999  0.3746519980000000  0.7293256670000000
  0.6247699859999998  0.6247550250000000  0.7294903346666667
  0.6242960100000000  0.1250700060000000  0.7297470023333333
  0.8755239839999999  0.3742029960000001  0.7302269986666667
  0.8751900200000000  0.6239510180000000  0.7298959990000000
  0.8749849799999999  0.8749709730000000  0.7298280000000000
  0.8754259940000000  0.1250939970000000  0.7300646653333334
  0.1249869990000000  0.1249710020000000  0.7309059996666667
  0.3744699950000000  0.3744550050000000  0.7297486663333334
  0.3740119930000000  0.1250299960000000  0.7305599996666666
  0.3746669890000000  0.6250600219999999  0.7293253343333335
  0.1250849960000000  0.6242809890000000  0.7297480006666667
  0.3742170039999999  0.8755109910000001  0.7302256673333334
  0.6239659789999996  0.8751749990000002  0.7298950006666667
  0.1251090020000001  0.8754119870000000  0.7300643323333333
  0.1250450020000000  0.3739970030000000  0.7305609980000000
  0.6252700090000000  0.3748399910000000  0.9299953380000001
  0.6254690289999998  0.6254649760000000  0.9295883376666667
  0.6257489920000000  0.1243930010000000  0.9291050036666667
  0.8748480079999998  0.3756380080000000  0.9295886753333333
  0.8749039769999997  0.6259469989999999  0.9287736613333333
  0.8749729989999999  0.8749690060000003  0.9284320076666667
  0.8748480079999998  0.1245040000000000  0.9292663336666667
  0.1249509980000000  0.1249450000000000  0.9295066596666667
  0.3751550020000001  0.3751479980000000  0.9298310080000001
  0.3759849970000000  0.1247240010000000  0.9294353326666668
  0.3748460110000000  0.6252650020000000  0.9299956760000000
  0.1243989990000000  0.6257439849999998  0.9291039903333334
  0.3756429850000000  0.8748430010000000  0.9295893310000001
  0.6259509920000002  0.8749009969999999  0.9287739993333334
  0.1245099980000001  0.8748440149999999  0.9292663336666667
  0.1247299980000000  0.3759790060000000  0.9294349950000000
