Si Ti  C Si  O Li Ti  C Si  O Li 
1.0
       12.1997957230         0.0000000000         0.0000000000
        6.0999110237        10.5653298227         0.0000000000
       -0.0316962421        -0.0185524007        33.5260037484
   Si   Ti    C    O   Li
  150   64   32   64   64
Direct
     0.266746998         0.066679999         0.331633002
     0.333339006         0.133423999         0.331012994
     0.266759992         0.266782999         0.331231326
     0.333420992         0.333438993         0.330448002
     0.266808003         0.466762990         0.329806656
     0.333501995         0.533361971         0.329713315
     0.266826987         0.666630030         0.329322994
     0.333469987         0.733271003         0.330016345
     0.266777009         0.866586983         0.330539674
     0.333368003         0.933348000         0.330813318
     0.466764987         0.066730000         0.330026656
     0.533321023         0.133504003         0.329388648
     0.466742992         0.266829997         0.329805672
     0.533343017         0.333519995         0.329713315
     0.466735989         0.466755986         0.329521984
     0.533339977         0.533361018         0.329830676
     0.466733009         0.666598022         0.329634339
     0.533330023         0.733287990         0.329538673
     0.466753989         0.866612971         0.329944342
     0.533309996         0.933387995         0.329301983
     0.666705012         0.066771999         0.328516006
     0.733299971         0.133526996         0.328789324
     0.666607976         0.266849995         0.329322666
     0.733250976         0.333487988         0.330017000
     0.666577995         0.466753006         0.329635352
     0.733267009         0.533349991         0.329539001
     0.666652977         0.666674972         0.328893334
     0.733318985         0.733339012         0.328103662
     0.666737974         0.866693020         0.328314006
     0.733330011         0.933432996         0.327689677
     0.866629004         0.066757001         0.329068661
     0.933344007         0.133465007         0.330251336
     0.866563022         0.266799986         0.330539316
     0.933331013         0.333384991         0.330813676
     0.866590023         0.466775000         0.329945326
     0.933369994         0.533329010         0.329303652
     0.866668999         0.666760027         0.328314334
     0.933416009         0.733348012         0.327690989
     0.866693020         0.866717994         0.327868015
     0.933400989         0.933417976         0.328304678
     0.066674002         0.066699997         0.331011981
     0.133384004         0.133396000         0.331454337
     0.066653997         0.266772002         0.331632674
     0.133408993         0.333355993         0.331014335
     0.066706002         0.466787010         0.330027342
     0.133487999         0.533339977         0.329390675
     0.066747002         0.666728020         0.328516990
     0.133511007         0.733317971         0.328790992
     0.066730998         0.866654992         0.329068989
     0.133450001         0.933359027         0.330251992
     0.266746998         0.066679999         0.664966345
     0.333339006         0.133423999         0.664346337
     0.266759992         0.266782999         0.664564669
     0.333420992         0.333438993         0.663781345
     0.266808003         0.466762990         0.663139999
     0.333501995         0.533361971         0.663046658
     0.266826987         0.666630030         0.662656307
     0.333469987         0.733271003         0.663349688
     0.266777009         0.866586983         0.663873017
     0.333368003         0.933348000         0.664146662
     0.466764987         0.066730000         0.663360000
     0.533321023         0.133504003         0.662721992
     0.466742992         0.266829997         0.663138986
     0.533343017         0.333519995         0.663046658
     0.466735989         0.466755986         0.662855327
     0.533339977         0.533361018         0.663164020
     0.466733009         0.666598022         0.662967682
     0.533330023         0.733287990         0.662872016
     0.466753989         0.866612971         0.663277686
     0.533309996         0.933387995         0.662635326
     0.666705012         0.066771999         0.661849320
     0.733299971         0.133526996         0.662122667
     0.666607976         0.266849995         0.662656009
     0.733250976         0.333487988         0.663350344
     0.666577995         0.466753006         0.662968695
     0.733267009         0.533349991         0.662872314
     0.666652977         0.666674972         0.662226677
     0.733318985         0.733339012         0.661436975
     0.666737974         0.866693020         0.661647320
     0.733330011         0.933432996         0.661023021
     0.866629004         0.066757001         0.662401974
     0.933344007         0.133465007         0.663584650
     0.866563022         0.266799986         0.663872659
     0.933331013         0.333384991         0.664147019
     0.866590023         0.466775000         0.663278639
     0.933369994         0.533329010         0.662636995
     0.866668999         0.666760027         0.661647677
     0.933416009         0.733348012         0.661024332
     0.866693020         0.866717994         0.661201358
     0.933400989         0.933417976         0.661638021
     0.066674002         0.066699997         0.664345324
     0.133384004         0.133396000         0.664787650
     0.066653997         0.266772002         0.664965987
     0.133408993         0.333355993         0.664347649
     0.066706002         0.466787010         0.663360655
     0.133487999         0.533339977         0.662724018
     0.066747002         0.666728020         0.661850333
     0.133511007         0.733317971         0.662124336
     0.066730998         0.866654992         0.662402332
     0.133450001         0.933359027         0.663585305
     0.266746998         0.066679999         0.998299658
     0.333339006         0.133423999         0.997679651
     0.266759992         0.266782999         0.997897983
     0.333420992         0.333438993         0.997114658
     0.266808003         0.466762990         0.996473312
     0.333501995         0.533361971         0.996379972
     0.266826987         0.666630030         0.995989680
     0.333469987         0.733271003         0.996683002
     0.266777009         0.866586983         0.997206330
     0.333368003         0.933348000         0.997479975
     0.466764987         0.066730000         0.996693313
     0.533321023         0.133504003         0.996055305
     0.466742992         0.266829997         0.996472359
     0.533343017         0.333519995         0.996379972
     0.466735989         0.466755986         0.996188641
     0.533339977         0.533361018         0.996497333
     0.466733009         0.666598022         0.996300995
     0.533330023         0.733287990         0.996205330
     0.466753989         0.866612971         0.996610999
     0.533309996         0.933387995         0.995968640
     0.666705012         0.066771999         0.995182693
     0.733299971         0.133526996         0.995455980
     0.666607976         0.266849995         0.995989323
     0.733250976         0.333487988         0.996683657
     0.666577995         0.466753006         0.996302009
     0.733267009         0.533349991         0.996205688
     0.666652977         0.666674972         0.995559990
     0.733318985         0.733339012         0.994770348
     0.666737974         0.866693020         0.994980693
     0.733330011         0.933432996         0.994356334
     0.866629004         0.066757001         0.995735347
     0.933344007         0.133465007         0.996918023
     0.866563022         0.266799986         0.997205973
     0.933331013         0.333384991         0.997480333
     0.866590023         0.466775000         0.996612012
     0.933369994         0.533329010         0.995970309
     0.866668999         0.666760027         0.994980991
     0.933416009         0.733348012         0.994357646
     0.866693020         0.866717994         0.994534671
     0.933400989         0.933417976         0.994971335
     0.066674002         0.066699997         0.997678638
     0.133384004         0.133396000         0.998121023
     0.066653997         0.266772002         0.998299360
     0.133408993         0.333355993         0.997681022
     0.066706002         0.466787010         0.996694028
     0.133487999         0.533339977         0.996057332
     0.066747002         0.666728020         0.995183647
     0.133511007         0.733317971         0.995457649
     0.066730998         0.866654992         0.995735645
     0.133450001         0.933359027         0.996918678
     0.041685000         0.041671000         0.461860329
     0.208439007         0.208431005         0.531278312
     0.041618999         0.291474998         0.462009013
     0.208442003         0.458566010         0.531052351
     0.041781999         0.541292012         0.461652339
     0.208436996         0.708226025         0.530957639
     0.041871998         0.791481972         0.461497664
     0.208444998         0.958068013         0.531181335
     0.291485995         0.041609999         0.462009013
     0.458575010         0.208432004         0.531051338
     0.291572005         0.291561991         0.461897343
     0.458416998         0.458407998         0.531099319
     0.291817993         0.541445971         0.461610675
     0.458478987         0.708118975         0.531076312
     0.291716993         0.791481018         0.461725324
     0.458635986         0.958146989         0.531028688
     0.541302979         0.041770998         0.461652011
     0.708232999         0.208430007         0.530957341
     0.541459024         0.291806996         0.461610347
     0.708128989         0.458469987         0.531076312
     0.541522026         0.541508019         0.461587667
     0.708368003         0.708360016         0.530786693
     0.541369975         0.791476011         0.461631328
     0.708464026         0.958302975         0.530671000
     0.791491985         0.041861001         0.461497337
     0.958074987         0.208434999         0.531180978
     0.791494012         0.291703999         0.461725324
     0.958157003         0.458627999         0.531028986
     0.791486025         0.541357994         0.461632013
     0.958314002         0.708454013         0.530670345
     0.791499972         0.791489005         0.461400986
     0.958257973         0.958248973         0.530816972
     0.041685000         0.041671000         0.795193672
     0.208439007         0.208431005         0.864611685
     0.041618999         0.291474998         0.795342326
     0.208442003         0.458566010         0.864385664
     0.041781999         0.541292012         0.794985652
     0.208436996         0.708226025         0.864291012
     0.041871998         0.791481972         0.794830978
     0.208444998         0.958068013         0.864514649
     0.291485995         0.041609999         0.795342326
     0.458575010         0.208432004         0.864384651
     0.291572005         0.291561991         0.795230687
     0.458416998         0.458407998         0.864432693
     0.291817993         0.541445971         0.794943988
     0.458478987         0.708118975         0.864409685
     0.291716993         0.791481018         0.795058668
     0.458635986         0.958146989         0.864362001
     0.541302979         0.041770998         0.794985354
     0.708232999         0.208430007         0.864290655
     0.541459024         0.291806996         0.794943690
     0.708128989         0.458469987         0.864409685
     0.541522026         0.541508019         0.794920981
     0.708368003         0.708360016         0.864120007
     0.541369975         0.791476011         0.794964671
     0.708464026         0.958302975         0.864004314
     0.791491985         0.041861001         0.794830680
     0.958074987         0.208434999         0.864514351
     0.791494012         0.291703999         0.795058668
     0.958157003         0.458627999         0.864362359
     0.791486025         0.541357994         0.794965327
     0.958314002         0.708454013         0.864003658
     0.791499972         0.791489005         0.794734359
     0.958257973         0.958248973         0.864150345
     0.124954998         0.124945000         0.496673346
     0.125014007         0.375001013         0.496538013
     0.125156999         0.624894023         0.496209323
     0.125101000         0.874832988         0.496342331
     0.375012010         0.125002995         0.496537656
     0.375072002         0.375061989         0.496404320
     0.375097007         0.624834001         0.496347666
     0.375037998         0.874773026         0.496478677
     0.624903977         0.125147000         0.496208996
     0.624844015         0.375086993         0.496347666
     0.624867022         0.624857008         0.496289670
     0.624929011         0.874915004         0.496148676
     0.874843001         0.125091001         0.496342003
     0.874782979         0.375028014         0.496479005
     0.874925017         0.624920011         0.496148676
     0.874988019         0.874978006         0.496008337
     0.124954998         0.124945000         0.830006659
     0.125014007         0.375001013         0.829871356
     0.125156999         0.624894023         0.829542637
     0.125101000         0.874832988         0.829675674
     0.375012010         0.125002995         0.829870999
     0.375072002         0.375061989         0.829737663
     0.375097007         0.624834001         0.829680979
     0.375037998         0.874773026         0.829811990
     0.624903977         0.125147000         0.829542339
     0.624844015         0.375086993         0.829680979
     0.624867022         0.624857008         0.829622984
     0.624929011         0.874915004         0.829482019
     0.874843001         0.125091001         0.829675317
     0.874782979         0.375028014         0.829812348
     0.874925017         0.624920011         0.829482019
     0.874988019         0.874978006         0.829341650
     0.041517001         0.041512001         0.569652319
     0.208118007         0.208104998         0.423742652
     0.041517999         0.292030990         0.569862008
     0.208339006         0.457834989         0.423263013
     0.041517001         0.542228997         0.569352329
     0.208435997         0.708139002         0.423042655
     0.041517999         0.791731000         0.569135666
     0.208217993         0.958410978         0.423545986
     0.292037994         0.041510999         0.569861650
     0.457848012         0.208324999         0.423262328
     0.291920990         0.291913986         0.569781005
     0.458177000         0.458162993         0.423085988
     0.291685998         0.541881979         0.569535673
     0.458050013         0.708232999         0.423155010
     0.291783988         0.791504025         0.569643676
     0.457709014         0.958410025         0.423331320
     0.542235970         0.041510001         0.569351971
     0.708151996         0.208423004         0.423042655
     0.541889012         0.291678995         0.569535673
     0.708245993         0.458036005         0.423155010
     0.541760027         0.541754007         0.569609344
     0.708009005         0.707996011         0.422903001
     0.542093992         0.791599989         0.569426358
     0.707898021         0.958405018         0.422817677
     0.791737020         0.041512001         0.569135308
     0.958423972         0.208204001         0.423545986
     0.791509986         0.291777015         0.569643974
     0.958423972         0.457695007         0.423331678
     0.791606009         0.542087018         0.569426358
     0.958419025         0.707885027         0.422818005
     0.791833997         0.791827977         0.568939328
     0.958427012         0.958414018         0.423025668
     0.041517001         0.041512001         0.902985692
     0.208118007         0.208104998         0.757076025
     0.041517999         0.292030990         0.903195322
     0.208339006         0.457834989         0.756596327
     0.041517001         0.542228997         0.902685642
     0.208435997         0.708139002         0.756376028
     0.041517999         0.791731000         0.902468979
     0.208217993         0.958410978         0.756879330
     0.292037994         0.041510999         0.903195024
     0.457848012         0.208324999         0.756595671
     0.291920990         0.291913986         0.903114319
     0.458177000         0.458162993         0.756419361
     0.291685998         0.541881979         0.902868986
     0.458050013         0.708232999         0.756488323
     0.291783988         0.791504025         0.902976990
     0.457709014         0.958410025         0.756664693
     0.542235970         0.041510001         0.902685344
     0.708151996         0.208423004         0.756376028
     0.541889012         0.291678995         0.902868986
     0.708245993         0.458036005         0.756488323
     0.541760027         0.541754007         0.902942657
     0.708009005         0.707996011         0.756236315
     0.542093992         0.791599989         0.902759671
     0.707898021         0.958405018         0.756151021
     0.791737020         0.041512001         0.902468681
     0.958423972         0.208204001         0.756879330
     0.791509986         0.291777015         0.902977347
     0.958423972         0.457695007         0.756664991
     0.791606009         0.542087018         0.902759671
     0.958419025         0.707885027         0.756151319
     0.791833997         0.791827977         0.902272642
     0.958427012         0.958414018         0.756358981
     0.625074983         0.374651998         0.395992339
     0.624769986         0.624755025         0.396156996
     0.624296010         0.125070006         0.396413684
     0.875523984         0.374202996         0.396893680
     0.875190020         0.623951018         0.396562666
     0.874984980         0.874970973         0.396494657
     0.875425994         0.125093997         0.396731347
     0.124986999         0.124971002         0.397572666
     0.374469995         0.374455005         0.396415323
     0.374011993         0.125029996         0.397226661
     0.374666989         0.625060022         0.395992011
     0.125084996         0.624280989         0.396414667
     0.374217004         0.875510991         0.396892339
     0.623965979         0.875174999         0.396561682
     0.125109002         0.875411987         0.396730989
     0.125045002         0.373997003         0.397227675
     0.625270009         0.374839991         0.596661985
     0.625469029         0.625464976         0.596255004
     0.625748992         0.124393001         0.595771670
     0.874848008         0.375638008         0.596255362
     0.874903977         0.625946999         0.595440328
     0.874972999         0.874969006         0.595098674
     0.874848008         0.124504000         0.595933020
     0.124950998         0.124945000         0.596173346
     0.375155002         0.375147998         0.596497655
     0.375984997         0.124724001         0.596101999
     0.374846011         0.625265002         0.596662343
     0.124398999         0.625743985         0.595770657
     0.375642985         0.874843001         0.596256018
     0.625950992         0.874900997         0.595440686
     0.124509998         0.874844015         0.595933020
     0.124729998         0.375979006         0.596101642
     0.625074983         0.374651998         0.729325652
     0.624769986         0.624755025         0.729490340
     0.624296010         0.125070006         0.729746997
     0.875523984         0.374202996         0.730226994
     0.875190020         0.623951018         0.729896009
     0.874984980         0.874970973         0.729828000
     0.875425994         0.125093997         0.730064690
     0.124986999         0.124971002         0.730906010
     0.374469995         0.374455005         0.729748666
     0.374011993         0.125029996         0.730560005
     0.374666989         0.625060022         0.729325354
     0.125084996         0.624280989         0.729748011
     0.374217004         0.875510991         0.730225682
     0.623965979         0.875174999         0.729894996
     0.125109002         0.875411987         0.730064332
     0.125045002         0.373997003         0.730561018
     0.625270009         0.374839991         0.929995358
     0.625469029         0.625464976         0.929588318
     0.625748992         0.124393001         0.929104984
     0.874848008         0.375638008         0.929588675
     0.874903977         0.625946999         0.928773642
     0.874972999         0.874969006         0.928431988
     0.874848008         0.124504000         0.929266334
     0.124950998         0.124945000         0.929506660
     0.375155002         0.375147998         0.929831028
     0.375984997         0.124724001         0.929435313
     0.374846011         0.625265002         0.929995656
     0.124398999         0.625743985         0.929103971
     0.375642985         0.874843001         0.929589331
     0.625950992         0.874900997         0.928773999
     0.124509998         0.874844015         0.929266334
     0.124729998         0.375979006         0.929435015
